wr=132;
nProviders=31;

cost_worker=[ 114 114 117 122 63 99 133 67 71 119 147 117 62 147 80 73 86 62 106 135 86 117 121 132 132 101 126 94 148 118 143 ];
available_workers=[ 32 15 35 44 43 16 20 31 41 34 13 33 44 28 28 16 28 33 31 20 25 25 39 15 33 38 40 16 38 37 33 ];
cost_contract=[ 1440 2885 1792 2542 2016 2915 3381 2241 1471 2062 2184 2676 2109 2051 1447 3307 3211 1007 1053 1105 3212 3110 2448 1392 2542 3464 2630 1637 1004 2699 1667 ];
country=[ 7 16 8 24 7 14 7 23 27 13 17 14 2 13 7 3 1 2 16 21 16 25 1 2 13 7 6 3 12 3 30 ];
cost_1=6;
cost_2=9;
cost_3=250;
